  Job Started  at 16:43.34 28th November   2023

  Number of CPUs =     1

  Total number of configurations input =      1

*  Input for Configuration =   1                                               *

  Formula = OMg

  Number of irreducible atoms/shells =       2

  Total number atoms/shells =       2

  Dimensionality = 3               :  Bulk

  Cartesian lattice vectors (Angstroms) :

        4.000000    0.000000    0.000000
        0.000000    5.000000    0.000000
        1.552914    3.000000    4.958675

  Cell parameters (Angstroms/Degrees):

  a =       4.0000    alpha =  60.0000
  b =       5.0000    beta  =  75.0000
  c =       6.0000    gamma =  90.0000

  Initial cell volume =          99.173499 Angs**3

  Temperature of configuration =   0.00     K

  Pressure of configuration =         0.000 GPa

  Fractional coordinates of asymmetric unit :

   No.  Atomic       x           y          z         Charge      Occupancy
        Label      (Frac)      (Frac)     (Frac)        (e)         (Frac)
      1 O     c    0.000000    0.000000    0.000000     0.00000    1.000000
      2 Mg    c    0.500000    0.500000    0.500000     0.00000    1.000000

  Brillouin zone sampling points :

  Point number          x          y          z            Weight
        1           0.000000   0.000000   0.000000     1.00000000

*  General input information                                                   *

  Species output for all configurations :

  Species    Type    Atomic    Atomic    Charge       Radii (Angs)     Library
                     Number     Mass       (e)     Cova   Ionic  VDW   Symbol
    O        Core        8      16.00   0.000000   0.730  0.000  1.360
    Mg       Core       12      24.31   0.000000   1.100  0.000  1.640

  Lattice summation method               =    Ewald          (3-D)
                                         =    Parry          (2-D)
                                         =    Saunders et al (1-D)
  Accuracy factor for lattice sums       =   12.000

  Analytic derivatives to be used

  Time limit = Infinity

  Maximum range for interatomic potentials =    100000.000000 Angstroms

  General interatomic potentials :

Atom  Types   Potential      Parameter       Value         Units   Cutoffs(Ang)
  1     2                                                            Min /  Max
O    c Mg   c Buckingham    Buckingham A     946.62700    eV        0.000 10.000
                            Buckingham rho  0.31813000    Ang
                            Buckingham C     0.0000000    eV*Ang^6

*  Output for configuration   1                                                *

  Strain-strain second derivative matrix : (eV)

[...]

  Internal-internal second derivative matrix : (eV/Angstrom**2)

[...]

  Components of energy :

  Interatomic potentials     =           0.19434598 eV
  Monopole - monopole (real) =           0.00000000 eV
  Monopole - monopole (recip)=           0.00000000 eV
  Monopole - monopole (total)=           0.00000000 eV
  Total lattice energy       =           0.19434598 eV
  Total lattice energy       =              18.7514 kJ/(mole unit cells)

  Elastic Constant Matrix: (Units=GPa)

  Indices      1         2         3         4         5         6
       1      0.4052    0.6675    4.0325   -1.6170   -0.1996    0.0834
       2      0.6675   -0.1994    2.4168   -0.0911   -1.0673    0.0597
       3      4.0325    2.4168   10.5860   -5.0702   -5.6277    2.6115
       4     -1.6170   -0.0911   -5.0702    1.2298    2.4373   -0.6330
       5     -0.1996   -1.0673   -5.6277    2.4373    2.7243   -1.2098
       6      0.0834    0.0597    2.6115   -0.6330   -1.2098    0.2074

  Elastic Compliance Matrix: (Units=1/GPa)

  Indices      1         2         3         4         5         6
       1    0.060206  0.034455  0.201693 -0.156433  0.490737 -0.188628
       2    0.034455  5.035562  1.029893  4.662795  0.099189  0.378473
       3    0.201693  1.029893 -0.199171 -0.019552 -0.593429 -1.391033
       4   -0.156433  4.662795 -0.019552  1.830669 -1.357769 -3.366005
       5    0.490737  0.099189 -0.593429 -1.357769 -1.137066 -3.530471
       6   -0.188628  0.378473 -1.391033 -3.366005 -3.530471 -8.563402

  Mechanical properties :

  Convention :                    Reuss         Voigt         Hill
  Bulk  Modulus (GPa)     =       0.13461       2.78058       1.45760
  Shear Modulus (GPa)     =      -1.65068       1.07730      -0.28669
  Velocity S-wave (km/s)  =      -1.56385       1.26338      -0.65173
  Velocity P-wave (km/s)  =       1.74968       2.49957       1.26223
  Compressibility (1/GPa) =    7.42867963
  Stress axis :                     x             y             z
  Youngs Moduli (GPa)     =      16.60968       0.19859      -5.02081
  Poissons Ratio (x)      =                    -0.00684       1.01266
  Poissons Ratio (y)      =      -0.57229                     5.17089
  Poissons Ratio (z)      =      -3.35006      -0.20452

  Piezoelectric Strain Matrix: (Units=C/m**2)

  Indices      1         2         3         4         5         6
       x    -0.00000  -0.00000  -0.00000  -0.00000  -0.00000  -0.00000
       y    -0.00000  -0.00000  -0.00000  -0.00000  -0.00000  -0.00000
       z    -0.00000  -0.00000  -0.00000  -0.00000  -0.00000  -0.00000

  Piezoelectric Stress Matrix: (Units=10**-11 C/N)

  Indices      1         2         3         4         5         6
       x     0.00000   0.00000   0.00000   0.00000   0.00000   0.00000
       y     0.00000   0.00000   0.00000   0.00000   0.00000   0.00000
       z     0.00000   0.00000   0.00000   0.00000   0.00000   0.00000

  Static dielectric constant tensor :

              x         y         z
       x     1.00000   0.00000   0.00000
       y     0.00000   1.00000   0.00000
       z     0.00000   0.00000   1.00000

  Static refractive indices :

    1 =    1.00000      2 =    1.00000      3 =    1.00000

  Phonon Calculation :

  Number of k points for this configuration =        1

  K point      1 =   0.000000  0.000000  0.000000  Weight =    1.000

  Frequencies (cm-1) [NB: Negative implies an imaginary mode]:

  -75.12  -54.77   -0.00    0.00    0.00  226.30

  Phonon properties (per mole of unit cells): Temperature =      0.000 K
  Zero point energy             =        0.014029 eV

  Phonon density of states :

 Frequency (cm-1) Density of States
    0.00000 |************************************************************  0.667
    3.53586 |                                                              0.000
    7.07173 |                                                              0.000
   10.60759 |                                                              0.000
   14.14345 |                                                              0.000
   17.67932 |                                                              0.000
   21.21518 |                                                              0.000
   24.75104 |                                                              0.000
   28.28691 |                                                              0.000
   31.82277 |                                                              0.000
   35.35863 |                                                              0.000
   38.89449 |                                                              0.000
   42.43036 |                                                              0.000
   45.96622 |                                                              0.000
   49.50208 |                                                              0.000
   53.03795 |                                                              0.000
   56.57381 |                                                              0.000
   60.10967 |                                                              0.000
   63.64554 |                                                              0.000
   67.18140 |                                                              0.000
   70.71726 |                                                              0.000
   74.25313 |                                                              0.000
   77.78899 |                                                              0.000
   81.32485 |                                                              0.000
   84.86072 |                                                              0.000
   88.39658 |                                                              0.000
   91.93244 |                                                              0.000
   95.46831 |                                                              0.000
   99.00417 |                                                              0.000
  102.54003 |                                                              0.000
  106.07590 |                                                              0.000
  109.61176 |                                                              0.000
  113.14762 |                                                              0.000
  116.68348 |                                                              0.000
  120.21935 |                                                              0.000
  123.75521 |                                                              0.000
  127.29107 |                                                              0.000
  130.82694 |                                                              0.000
  134.36280 |                                                              0.000
  137.89866 |                                                              0.000
  141.43453 |                                                              0.000
  144.97039 |                                                              0.000
  148.50625 |                                                              0.000
  152.04212 |                                                              0.000
  155.57798 |                                                              0.000
  159.11384 |                                                              0.000
  162.64971 |                                                              0.000
  166.18557 |                                                              0.000
  169.72143 |                                                              0.000
  173.25730 |                                                              0.000
  176.79316 |                                                              0.000
  180.32902 |                                                              0.000
  183.86488 |                                                              0.000
  187.40075 |                                                              0.000
  190.93661 |                                                              0.000
  194.47247 |                                                              0.000
  198.00834 |                                                              0.000
  201.54420 |                                                              0.000
  205.08006 |                                                              0.000
  208.61593 |                                                              0.000
  212.15179 |                                                              0.000
  215.68765 |                                                              0.000
  219.22352 |                                                              0.000
  222.75938 |******************************                                0.333

  Time to end of properties =       0.0109 seconds

  Electrostatic potential at atomic positions :

 Site  Atomic      Potential                Derivatives (V/Angs)
 No.   Label          (V)                 x           y           z
     1 O     c      0.000000           0.000000    0.000000    0.000000
     2 Mg    c      0.000000           0.000000    0.000000    0.000000

  Total time to end of atomic site potentials =       0.0110 s

  Timing analysis for GULP :

  Task / Subroutine                                          Time (Seconds)
  Calculation of real space energy and derivatives                0.0002
  Calculation of phonons                                          0.0006

  FDF file written as hi.fdf

  Job Finished at 16:43.34 28th November   2023