  Job Started  at 15:43.18  3rd November   2023

  Number of CPUs =     1

  Total number of configurations input =      1

*  Input for Configuration =   1                                               *

  Formula = OMg

  Number of irreducible atoms/shells =       2

  Total number atoms/shells =       2

  Dimensionality = 3               :  Bulk

  Cartesian lattice vectors (Angstroms) :

        4.000000    0.000000    0.000000
        2.500000    4.330127    0.000000
        1.552914   -0.896575    5.725785

  Cell parameters (Angstroms/Degrees):

  a =       4.0000    alpha =  90.0000
  b =       5.0000    beta  =  75.0000
  c =       6.0000    gamma =  60.0000

  Initial cell volume =          99.173499 Angs**3

  Temperature of configuration =   0.00     K

  Pressure of configuration =         0.000 GPa

  Fractional coordinates of asymmetric unit :

   No.  Atomic       x           y          z         Charge      Occupancy
        Label      (Frac)      (Frac)     (Frac)        (e)         (Frac)
      1 O     c    0.370000    0.280000    0.790000    -2.00000    1.000000
      2 Mg    c    0.500000    0.420000    0.100000     2.00000    1.000000

  Distance calculation :

  Cutoff for distances  =      2.000000 Angstroms

  Asymmetric unit site  Full lattice sites    No.  Distance      No.  Distance
      No.   At.No.            At.No.                (Angs)             (Angs)

  Brillouin zone sampling points :

  Point number          x          y          z            Weight
        1           0.000000   0.000000   0.000000     1.00000000

*  General input information                                                   *

  Species output for all configurations :

  Species    Type    Atomic    Atomic    Charge       Radii (Angs)     Library
                     Number     Mass       (e)     Cova   Ionic  VDW   Symbol
    O        Core        8      16.00  -2.000000   0.730  0.000  1.360
    Mg       Core       12      24.31   2.000000   1.100  0.000  1.640

  Lattice summation method               =    Ewald          (3-D)
                                         =    Parry          (2-D)
                                         =    Saunders et al (1-D)
  Accuracy factor for lattice sums       =   12.000

  Analytic derivatives to be used

  Time limit = Infinity

*  Output for configuration   1                                                *

  Strain-strain second derivative matrix : (eV)

[...]

  Internal-internal second derivative matrix : (eV/Angstrom**2)

[...]

  Components of energy :

  Interatomic potentials     =           0.00000000 eV
  Monopole - monopole (real) =          -5.75288747 eV
  Monopole - monopole (recip)=         -23.38824118 eV
  Monopole - monopole (total)=         -29.14112865 eV
  Total lattice energy       =         -29.14112865 eV
  Total lattice energy       =           -2811.6735 kJ/(mole unit cells)

  Born effective charge tensors :

  Atom             x           y             z
    1 O     x      -2.0000      0.0000      0.0000
            y       0.0000     -2.0000      0.0000
            z       0.0000      0.0000     -2.0000
    2 Mg    x       2.0000      0.0000      0.0000
            y       0.0000      2.0000      0.0000
            z       0.0000      0.0000      2.0000

  Elastic Constant Matrix: (Units=GPa)

  Indices      1         2         3         4         5         6
       1   3588.9448  347.9236-3295.7560  -42.4428 -574.5245   89.9856
       2    347.9236   45.5957 -327.3135  -12.9783  -53.1287   -1.4303
       3  -3295.7560 -327.3135 2994.5477   49.1203  523.3922  -73.4895
       4    -42.4428  -12.9783   49.1203  -24.4764    9.1038   -5.1515
       5   -574.5245  -53.1287  523.3922    9.1038   77.1131  -15.8512
       6     89.9856   -1.4303  -73.4895   -5.1515  -15.8512    5.6701

  Elastic Compliance Matrix: (Units=1/GPa)

  Indices      1         2         3         4         5         6
       1   -0.025730  0.026623 -0.020513 -0.032870 -0.013443  0.081740
       2    0.026623 -0.363513 -0.039630  0.228787  0.050116 -0.679884
       3   -0.020513 -0.039630 -0.028375  0.007954  0.005333 -0.030079
       4   -0.032870  0.228787  0.007954 -0.189492 -0.032886  0.418369
       5   -0.013443  0.050116  0.005333 -0.032886 -0.071597  0.065072
       6    0.081740 -0.679884 -0.030079  0.418369  0.065072 -1.120207

  Mechanical properties :

  Convention :                    Reuss         Voigt         Hill
  Bulk  Modulus (GPa)     =      -2.06331       8.75518       3.34593
  Shear Modulus (GPa)     =      -2.64072     671.94362     334.65145
  Velocity S-wave (km/s)  =      -1.97799      31.55221      22.26690
  Velocity P-wave (km/s)  =       2.87638      36.61094      25.80782
  Compressibility (1/GPa) =   -0.48465828
  Stress axis :                     x             y             z
  Youngs Moduli (GPa)     =     -38.86574      -2.75093     -35.24254
  Poissons Ratio (x)      =                     0.07324      -0.72293
  Poissons Ratio (y)      =       1.03471                    -1.39666
  Poissons Ratio (z)      =      -0.79725      -0.10902

  Piezoelectric Strain Matrix: (Units=C/m**2)

  Indices      1         2         3         4         5         6
       x   557.39124  53.60765-512.13461  -6.68329 -95.96530  12.81394
       y    -6.58963  -6.40528  11.65737  -7.33531   1.74311  -3.76129
       z  -382.27712 -36.13738 347.38205   4.56383  61.07743  -8.88507

  Piezoelectric Stress Matrix: (Units=10**-11 C/N)

  Indices      1         2         3         4         5         6
       x    14.82566  59.75709   2.31108 -34.70800  38.68719 112.35291
       y   -32.98690 265.73610  12.23261-139.70688 -29.85821 472.35557
       z     5.05986 -66.16321   4.61562  47.02251   7.92244-129.00024

  Static dielectric constant tensor :

              x         y         z
       x   -91.55302   0.00000   0.00000
       y     0.00000   0.32123   0.00000
       z     0.00000   0.00000   3.06583

  Static refractive indices :

    1 =   -9.56833      2 =    0.56677      3 =    1.75095

  Phonon Calculation :

  Number of k points for this configuration =        1

  K point      1 =   0.000000  0.000000  0.000000  Weight =    1.000

  Frequencies (cm-1) [NB: Negative implies an imaginary mode]:

 -550.47  -47.14   -0.00    0.00    0.00  315.54

  Phonon properties (per mole of unit cells): Temperature =      0.000 K
  Zero point energy             =        0.019561 eV

  Phonon density of states :

 Frequency (cm-1) Density of States
    0.00000 |************************************************************  0.667
    4.93026 |                                                              0.000
    9.86052 |                                                              0.000
   14.79078 |                                                              0.000
   19.72104 |                                                              0.000
   24.65129 |                                                              0.000
   29.58155 |                                                              0.000
   34.51181 |                                                              0.000
   39.44207 |                                                              0.000
   44.37233 |                                                              0.000
   49.30259 |                                                              0.000
   54.23285 |                                                              0.000
   59.16311 |                                                              0.000
   64.09337 |                                                              0.000
   69.02362 |                                                              0.000
   73.95388 |                                                              0.000
   78.88414 |                                                              0.000
   83.81440 |                                                              0.000
   88.74466 |                                                              0.000
   93.67492 |                                                              0.000
   98.60518 |                                                              0.000
  103.53544 |                                                              0.000
  108.46570 |                                                              0.000
  113.39595 |                                                              0.000
  118.32621 |                                                              0.000
  123.25647 |                                                              0.000
  128.18673 |                                                              0.000
  133.11699 |                                                              0.000
  138.04725 |                                                              0.000
  142.97751 |                                                              0.000
  147.90777 |                                                              0.000
  152.83803 |                                                              0.000
  157.76828 |                                                              0.000
  162.69854 |                                                              0.000
  167.62880 |                                                              0.000
  172.55906 |                                                              0.000
  177.48932 |                                                              0.000
  182.41958 |                                                              0.000
  187.34984 |                                                              0.000
  192.28010 |                                                              0.000
  197.21036 |                                                              0.000
  202.14061 |                                                              0.000
  207.07087 |                                                              0.000
  212.00113 |                                                              0.000
  216.93139 |                                                              0.000
  221.86165 |                                                              0.000
  226.79191 |                                                              0.000
  231.72217 |                                                              0.000
  236.65243 |                                                              0.000
  241.58269 |                                                              0.000
  246.51294 |                                                              0.000
  251.44320 |                                                              0.000
  256.37346 |                                                              0.000
  261.30372 |                                                              0.000
  266.23398 |                                                              0.000
  271.16424 |                                                              0.000
  276.09450 |                                                              0.000
  281.02476 |                                                              0.000
  285.95502 |                                                              0.000
  290.88527 |                                                              0.000
  295.81553 |                                                              0.000
  300.74579 |                                                              0.000
  305.67605 |                                                              0.000
  310.60631 |******************************                                0.333

  Time to end of properties =       0.0042 seconds

  Timing analysis for GULP :

  Task / Subroutine                                          Time (Seconds)
  Calculation of real space energy and derivatives                0.0002
  Calculation of phonons                                          0.0004

  Job Finished at 15:43.18  3rd November   2023