  Job Started  at 18:54.38 18th October    2023

  Number of CPUs =     1

  Total number of configurations input =      1

*  Input for Configuration =   1                                               *

  Formula = OMg

  Number of irreducible atoms/shells =       2

  Total number atoms/shells =       2

  Dimensionality = 3               :  Bulk

  Cartesian lattice vectors (Angstroms) :

        4.000000    0.000000    0.000000
        2.500000    4.330127    0.000000
        3.000000   -1.732051    4.898979

  Cell parameters (Angstroms/Degrees):

  a =       4.0000    alpha =  90.0000
  b =       5.0000    beta  =  60.0000
  c =       6.0000    gamma =  60.0000

  Initial cell volume =          84.852814 Angs**3

  Temperature of configuration =   0.00     K

  Pressure of configuration =         0.000 GPa

  Fractional coordinates of asymmetric unit :

   No.  Atomic       x           y          z         Charge      Occupancy
        Label      (Frac)      (Frac)     (Frac)        (e)         (Frac)
      1 O     c    0.280000    0.300000    0.120000     0.00000    1.000000
      2 Mg    c    0.510000    0.260000    0.330000     0.00000    1.000000

  Brillouin zone sampling points :

  Point number          x          y          z            Weight
        1           0.000000   0.000000   0.000000     1.00000000

*  General input information                                                   *

  Species output for all configurations :

  Species    Type    Atomic    Atomic    Charge       Radii (Angs)     Library
                     Number     Mass       (e)     Cova   Ionic  VDW   Symbol
    O        Core        8      16.00   0.000000   0.730  0.000  1.360
    Mg       Core       12      24.31   0.000000   1.100  0.000  1.640

  Lattice summation method               =    Ewald          (3-D)
                                         =    Parry          (2-D)
                                         =    Saunders et al (1-D)
  Accuracy factor for lattice sums       =   12.000

  Analytic derivatives to be used

  Time limit = Infinity

  Maximum range for interatomic potentials =    100000.000000 Angstroms

  General interatomic potentials :

Atom  Types   Potential      Parameter       Value         Units   Cutoffs(Ang)
  1     2                                                            Min /  Max
O    c Mg   c Buckingham    Buckingham A     946.62700    eV        0.000 10.000
                            Buckingham rho  0.31813000    Ang
                            Buckingham C     0.0000000    eV*Ang^6

*  Output for configuration   1                                                *

  Strain-strain second derivative matrix : (eV)

[...]

  Internal-internal second derivative matrix : (eV/Angstrom**2)

[...]

  Components of energy :

  Interatomic potentials     =           2.90709172 eV
  Monopole - monopole (real) =           0.00000000 eV
  Monopole - monopole (recip)=           0.00000000 eV
  Monopole - monopole (total)=           0.00000000 eV
  Total lattice energy       =           2.90709172 eV
  Total lattice energy       =             280.4899 kJ/(mole unit cells)

  Elastic Constant Matrix: (Units=GPa)

  Indices      1         2         3         4         5         6
       1     82.8532   -4.6934  -16.9552    8.7779   -9.2884    4.9582
       2     -4.6934    6.6944   -0.4844   -4.7069   -0.7138   -6.5660
       3    -16.9552   -0.4844   18.2748   -4.3251   10.4366    1.0862
       4      8.7779   -4.7069   -4.3251    5.6830   -2.1453    5.6030
       5     -9.2884   -0.7138   10.4366   -2.1453    7.7887   -1.0808
       6      4.9582   -6.5660    1.0862    5.6030   -1.0808    6.2603

  Elastic Compliance Matrix: (Units=1/GPa)

  Indices      1         2         3         4         5         6
       1    0.016072  0.001945  0.011930 -0.014240 -0.000580 -0.000114
       2    0.001945  0.561197  0.230353  0.698629 -0.075139 -0.091160
       3    0.011930  0.230353  0.060956 -0.035323 -0.021450  0.249488
       4   -0.014240  0.698629 -0.035323  0.611519  0.298097  0.254299
       5   -0.000580 -0.075139 -0.021450  0.298097  0.188807 -0.308830
       6   -0.000114 -0.091160  0.249488  0.254299 -0.308830 -0.259990

  Mechanical properties :

  Convention :                    Reuss         Voigt         Hill
  Bulk  Modulus (GPa)     =       0.88756       7.06183       3.97469
  Shear Modulus (GPa)     =       4.69191      12.61008       8.65099
  Velocity S-wave (km/s)  =       2.43878       3.99814       3.31155
  Velocity P-wave (km/s)  =       3.00921       5.50139       4.43400
  Compressibility (1/GPa) =    1.12668376
  Stress axis :                     x             y             z
  Youngs Moduli (GPa)     =      62.22128       1.78190      16.40517
  Poissons Ratio (x)      =                    -0.00347      -0.19572
  Poissons Ratio (y)      =      -0.12104                    -3.77899
  Poissons Ratio (z)      =      -0.74233      -0.41047

  Piezoelectric Strain Matrix: (Units=C/m**2)

  Indices      1         2         3         4         5         6
       x    -0.00000  -0.00000  -0.00000  -0.00000  -0.00000  -0.00000
       y    -0.00000  -0.00000  -0.00000  -0.00000  -0.00000  -0.00000
       z    -0.00000  -0.00000  -0.00000  -0.00000  -0.00000  -0.00000

  Piezoelectric Stress Matrix: (Units=10**-11 C/N)

  Indices      1         2         3         4         5         6
       x     0.00000   0.00000   0.00000   0.00000   0.00000   0.00000
       y     0.00000   0.00000   0.00000   0.00000   0.00000   0.00000
       z     0.00000   0.00000   0.00000   0.00000   0.00000   0.00000

  Static dielectric constant tensor :

              x         y         z
       x     1.00000   0.00000   0.00000
       y     0.00000   1.00000   0.00000
       z     0.00000   0.00000   1.00000

  Static refractive indices :

    1 =    1.00000      2 =    1.00000      3 =    1.00000

  Phonon Calculation :

  Number of k points for this configuration =        1

  K point      1 =   0.000000  0.000000  0.000000  Weight =    1.000

  Frequencies (cm-1) [NB: Negative implies an imaginary mode]:

 -367.40 -318.39   -0.00    0.00    0.00  879.43

  Phonon properties (per mole of unit cells): Temperature =      0.000 K
  Zero point energy             =        0.054518 eV

  Phonon density of states :

 Frequency (cm-1) Density of States
    0.00000 |************************************************************  0.667
   13.74104 |                                                              0.000
   27.48207 |                                                              0.000
   41.22311 |                                                              0.000
   54.96414 |                                                              0.000
   68.70518 |                                                              0.000
   82.44622 |                                                              0.000
   96.18725 |                                                              0.000
  109.92829 |                                                              0.000
  123.66932 |                                                              0.000
  137.41036 |                                                              0.000
  151.15140 |                                                              0.000
  164.89243 |                                                              0.000
  178.63347 |                                                              0.000
  192.37450 |                                                              0.000
  206.11554 |                                                              0.000
  219.85658 |                                                              0.000
  233.59761 |                                                              0.000
  247.33865 |                                                              0.000
  261.07968 |                                                              0.000
  274.82072 |                                                              0.000
  288.56176 |                                                              0.000
  302.30279 |                                                              0.000
  316.04383 |                                                              0.000
  329.78487 |                                                              0.000
  343.52590 |                                                              0.000
  357.26694 |                                                              0.000
  371.00797 |                                                              0.000
  384.74901 |                                                              0.000
  398.49005 |                                                              0.000
  412.23108 |                                                              0.000
  425.97212 |                                                              0.000
  439.71315 |                                                              0.000
  453.45419 |                                                              0.000
  467.19523 |                                                              0.000
  480.93626 |                                                              0.000
  494.67730 |                                                              0.000
  508.41833 |                                                              0.000
  522.15937 |                                                              0.000
  535.90041 |                                                              0.000
  549.64144 |                                                              0.000
  563.38248 |                                                              0.000
  577.12351 |                                                              0.000
  590.86455 |                                                              0.000
  604.60559 |                                                              0.000
  618.34662 |                                                              0.000
  632.08766 |                                                              0.000
  645.82869 |                                                              0.000
  659.56973 |                                                              0.000
  673.31077 |                                                              0.000
  687.05180 |                                                              0.000
  700.79284 |                                                              0.000
  714.53387 |                                                              0.000
  728.27491 |                                                              0.000
  742.01595 |                                                              0.000
  755.75698 |                                                              0.000
  769.49802 |                                                              0.000
  783.23905 |                                                              0.000
  796.98009 |                                                              0.000
  810.72113 |                                                              0.000
  824.46216 |                                                              0.000
  838.20320 |                                                              0.000
  851.94424 |                                                              0.000
  865.68527 |******************************                                0.333

  Time to end of properties =       0.0058 seconds

  Timing analysis for GULP :

  Task / Subroutine                                          Time (Seconds)
  Calculation of real space energy and derivatives                0.0001
  Calculation of phonons                                          0.0003

  Job Finished at 18:54.38 18th October    2023