  Job Started  at 16:46.04 23rd October    2023

  Number of CPUs =     1

  Total number of configurations input =      1

*  Input for Configuration =   1                                               *

  Formula = O2Mg

  Number of irreducible atoms/shells =       3

  Total number atoms/shells =       3

  Dimensionality = 3               :  Bulk

  Cartesian lattice vectors (Angstroms) :

        4.000000    0.000000    0.000000
        2.500000    4.330127    0.000000
        3.000000   -1.732051    4.898979

  Cell parameters (Angstroms/Degrees):

  a =       4.0000    alpha =  90.0000
  b =       5.0000    beta  =  60.0000
  c =       6.0000    gamma =  60.0000

  Initial cell volume =          84.852814 Angs**3

  Temperature of configuration =   0.00     K

  Pressure of configuration =         0.000 GPa

  Fractional coordinates of asymmetric unit :

   No.  Atomic       x           y          z         Charge      Occupancy
        Label      (Frac)      (Frac)     (Frac)        (e)         (Frac)
      1 O     c    0.370000    0.280000    0.790000     0.00000    1.000000
      2 Mg    c    0.500000    0.420000    0.100000     0.00000    1.000000
      3 O     c    0.620000    0.330000    0.450000     0.00000    1.000000

  Brillouin zone sampling points :

  Point number          x          y          z            Weight
        1           0.000000   0.000000   0.000000     1.00000000

*  General input information                                                   *

  Species output for all configurations :

  Species    Type    Atomic    Atomic    Charge       Radii (Angs)     Library
                     Number     Mass       (e)     Cova   Ionic  VDW   Symbol
    O        Core        8      16.00   0.000000   0.730  0.000  1.360
    Mg       Core       12      24.31   0.000000   1.100  0.000  1.640

  Lattice summation method               =    Ewald          (3-D)
                                         =    Parry          (2-D)
                                         =    Saunders et al (1-D)
  Accuracy factor for lattice sums       =   12.000

  Analytic derivatives to be used

  Time limit = Infinity

  Maximum range for interatomic potentials =    100000.000000 Angstroms

  General interatomic potentials :

Atom  Types   Potential      Parameter       Value         Units   Cutoffs(Ang)
  1     2                                                            Min /  Max
O    c Mg   c Buckingham    Buckingham A     946.62700    eV        0.000 10.000
                            Buckingham rho  0.31813000    Ang
                            Buckingham C     0.0000000    eV*Ang^6

*  Output for configuration   1                                                *

  Strain-strain second derivative matrix : (eV)

[...]

  Internal-internal second derivative matrix : (eV/Angstrom**2)

[...]

  Components of energy :

  Interatomic potentials     =           1.38206179 eV
  Monopole - monopole (real) =           0.00000000 eV
  Monopole - monopole (recip)=           0.00000000 eV
  Monopole - monopole (total)=           0.00000000 eV
  Total lattice energy       =           1.38206179 eV
  Total lattice energy       =             133.3478 kJ/(mole unit cells)

  Elastic Constant Matrix: (Units=GPa)

  Indices      1         2         3         4         5         6
       1    -32.0588   -0.7479   12.6586    2.5060   11.1882    0.2146
       2     -0.7479    5.5733   -0.6934   -1.1306   -0.8413   -1.9251
       3     12.6586   -0.6934   12.9117   -2.9496    1.1334    0.3587
       4      2.5060   -1.1306   -2.9496    4.8245   -0.6914    2.1248
       5     11.1882   -0.8413    1.1334   -0.6914    0.6527   -0.8909
       6      0.2146   -1.9251    0.3587    2.1248   -0.8909   -1.0310

  Elastic Compliance Matrix: (Units=1/GPa)

  Indices      1         2         3         4         5         6
       1   -0.003875  0.008429  0.004730  0.025753  0.068116 -0.020688
       2    0.008429  0.166284  0.025559  0.092145 -0.012386 -0.099236
       3    0.004730  0.025559  0.081564  0.010079 -0.080660  0.072113
       4    0.025753  0.092145  0.010079  0.161963  0.029488  0.145128
       5    0.068116 -0.012386 -0.080660  0.029488  0.282345 -0.173976
       6   -0.020688 -0.099236  0.072113  0.145128 -0.173976 -0.314432

  Mechanical properties :

  Convention :                    Reuss         Voigt         Hill
  Bulk  Modulus (GPa)     =       3.11129       0.98454       2.04792
  Shear Modulus (GPa)     =      12.39013      -0.76350       5.81332
  Velocity S-wave (km/s)  =       3.35313      -0.83237       2.29681
  Velocity P-wave (km/s)  =       4.22074       0.17425       2.98197
  Compressibility (1/GPa) =    0.32140989
  Stress axis :                     x             y             z
  Youngs Moduli (GPa)     =    -258.06087       6.01382      12.26038
  Poissons Ratio (x)      =                    -0.05069      -0.05800
  Poissons Ratio (y)      =       2.17526                    -0.31337
  Poissons Ratio (z)      =       1.22073      -0.15371

  Piezoelectric Strain Matrix: (Units=C/m**2)

  Indices      1         2         3         4         5         6
       x    -0.00000  -0.00000  -0.00000  -0.00000  -0.00000  -0.00000
       y    -0.00000  -0.00000  -0.00000  -0.00000  -0.00000  -0.00000
       z    -0.00000  -0.00000  -0.00000  -0.00000  -0.00000  -0.00000

  Piezoelectric Stress Matrix: (Units=10**-11 C/N)

  Indices      1         2         3         4         5         6
       x     0.00000   0.00000   0.00000   0.00000   0.00000   0.00000
       y     0.00000   0.00000   0.00000   0.00000   0.00000   0.00000
       z     0.00000   0.00000   0.00000   0.00000   0.00000   0.00000

  Static dielectric constant tensor :

              x         y         z
       x     1.00000   0.00000   0.00000
       y     0.00000   1.00000   0.00000
       z     0.00000   0.00000   1.00000

  Static refractive indices :

    1 =    1.00000      2 =    1.00000      3 =    1.00000

  Phonon Calculation :

  Number of k points for this configuration =        1

  K point      1 =   0.000000  0.000000  0.000000  Weight =    1.000

  Frequencies (cm-1) [NB: Negative implies an imaginary mode]:

 -178.61 -118.69 -105.00   -0.00   -0.00    0.00  170.43  321.98  456.88

  Phonon properties (per mole of unit cells): Temperature =      0.000 K
  Zero point energy             =        0.058849 eV

  Phonon density of states :

 Frequency (cm-1) Density of States
    0.00000 |************************************************************  0.250
    7.13869 |                                                              0.000
   14.27739 |                                                              0.000
   21.41608 |                                                              0.000
   28.55478 |                                                              0.000
   35.69347 |                                                              0.000
   42.83217 |                                                              0.000
   49.97086 |                                                              0.000
   57.10956 |                                                              0.000
   64.24825 |                                                              0.000
   71.38695 |                                                              0.000
   78.52564 |                                                              0.000
   85.66434 |                                                              0.000
   92.80303 |                                                              0.000
   99.94172 |                                                              0.000
  107.08042 |                                                              0.000
  114.21911 |                                                              0.000
  121.35781 |                                                              0.000
  128.49650 |                                                              0.000
  135.63520 |                                                              0.000
  142.77389 |                                                              0.000
  149.91259 |                                                              0.000
  157.05128 |                                                              0.000
  164.18998 |************************************************************  0.250
  171.32867 |                                                              0.000
  178.46737 |                                                              0.000
  185.60606 |                                                              0.000
  192.74476 |                                                              0.000
  199.88345 |                                                              0.000
  207.02214 |                                                              0.000
  214.16084 |                                                              0.000
  221.29953 |                                                              0.000
  228.43823 |                                                              0.000
  235.57692 |                                                              0.000
  242.71562 |                                                              0.000
  249.85431 |                                                              0.000
  256.99301 |                                                              0.000
  264.13170 |                                                              0.000
  271.27040 |                                                              0.000
  278.40909 |                                                              0.000
  285.54779 |                                                              0.000
  292.68648 |                                                              0.000
  299.82517 |                                                              0.000
  306.96387 |                                                              0.000
  314.10256 |                                                              0.000
  321.24126 |************************************************************  0.250
  328.37995 |                                                              0.000
  335.51865 |                                                              0.000
  342.65734 |                                                              0.000
  349.79604 |                                                              0.000
  356.93473 |                                                              0.000
  364.07343 |                                                              0.000
  371.21212 |                                                              0.000
  378.35082 |                                                              0.000
  385.48951 |                                                              0.000
  392.62821 |                                                              0.000
  399.76690 |                                                              0.000
  406.90559 |                                                              0.000
  414.04429 |                                                              0.000
  421.18298 |                                                              0.000
  428.32168 |                                                              0.000
  435.46037 |                                                              0.000
  442.59907 |                                                              0.000
  449.73776 |************************************************************  0.250

  Time to end of properties =       0.0087 seconds

  Timing analysis for GULP :

  Task / Subroutine                                          Time (Seconds)
  Calculation of real space energy and derivatives                0.0002
  Calculation of phonons                                          0.0004

  Job Finished at 16:46.04 23rd October    2023