  Job Started  at 16:53.20 25th October    2023

  Number of CPUs =     1

  Total number of configurations input =      1

*  Input for Configuration =   1                                               *

  Formula = O2Mg

  Number of irreducible atoms/shells =       3

  Total number atoms/shells =       3

  Dimensionality = 3               :  Bulk

  Cartesian lattice vectors (Angstroms) :

        4.000000    0.000000    0.000000
        2.500000    4.330127    0.000000
        1.552914   -0.896575    5.725785

  Cell parameters (Angstroms/Degrees):

  a =       4.0000    alpha =  90.0000
  b =       5.0000    beta  =  75.0000
  c =       6.0000    gamma =  60.0000

  Initial cell volume =          99.173499 Angs**3

  Temperature of configuration =   0.00     K

  Pressure of configuration =         0.000 GPa

  Fractional coordinates of asymmetric unit :

   No.  Atomic       x           y          z         Charge      Occupancy
        Label      (Frac)      (Frac)     (Frac)        (e)         (Frac)
      1 O     c    0.370000    0.280000    0.790000     0.00000    1.000000
      2 Mg    c    0.500000    0.420000    0.100000     0.00000    1.000000
      3 O     c    0.620000    0.330000    0.450000     0.00000    1.000000

  Brillouin zone sampling points :

  Point number          x          y          z            Weight
        1           0.000000   0.000000   0.000000     1.00000000

*  General input information                                                   *

  Species output for all configurations :

  Species    Type    Atomic    Atomic    Charge       Radii (Angs)     Library
                     Number     Mass       (e)     Cova   Ionic  VDW   Symbol
    O        Core        8      16.00   0.000000   0.730  0.000  1.360
    Mg       Core       12      24.31   0.000000   1.100  0.000  1.640

  Lattice summation method               =    Ewald          (3-D)
                                         =    Parry          (2-D)
                                         =    Saunders et al (1-D)
  Accuracy factor for lattice sums       =   12.000

  Analytic derivatives to be used

  Time limit = Infinity

  Maximum range for interatomic potentials =    100000.000000 Angstroms

  General interatomic potentials :

Atom  Types   Potential      Parameter       Value         Units   Cutoffs(Ang)
  1     2                                                            Min /  Max
O    c Mg   c Buckingham    Buckingham A     946.62700    eV        0.000 10.000
                            Buckingham rho  0.31813000    Ang
                            Buckingham C     0.0000000    eV*Ang^6

*  Output for configuration   1                                                *

  Strain-strain second derivative matrix : (eV)

[...]

  Internal-internal second derivative matrix : (eV/Angstrom**2)

[...]

  Components of energy :

  Interatomic potentials     =           1.60306622 eV
  Monopole - monopole (real) =           0.00000000 eV
  Monopole - monopole (recip)=           0.00000000 eV
  Monopole - monopole (total)=           0.00000000 eV
  Total lattice energy       =           1.60306622 eV
  Total lattice energy       =             154.6714 kJ/(mole unit cells)

  Elastic Constant Matrix: (Units=GPa)

  Indices      1         2         3         4         5         6
       1     25.4134   -0.2314   -8.2052   -0.7885    1.2955   -0.8145
       2     -0.2314    2.6546   -0.9954   -0.9471   -0.4277   -0.1805
       3     -8.2052   -0.9954   20.5530   -0.2503    3.1435    0.3611
       4     -0.7885   -0.9471   -0.2503    5.8388    0.2641    2.9055
       5      1.2955   -0.4277    3.1435    0.2641    5.3716   -0.5647
       6     -0.8145   -0.1805    0.3611    2.9055   -0.5647    1.7615

  Elastic Compliance Matrix: (Units=1/GPa)

  Indices      1         2         3         4         5         6
       1    0.049998  0.023266  0.029264  0.056270 -0.039123 -0.085850
       2    0.023266  0.508392  0.071717  0.493288 -0.115727 -0.802574
       3    0.029264  0.071717  0.090021  0.224357 -0.107325 -0.402035
       4    0.056270  0.493288  0.224357  2.082071 -0.585512 -3.591321
       5   -0.039123 -0.115727 -0.107325 -0.585512  0.391881  1.083434
       6   -0.085850 -0.802574 -0.402035 -3.591321  1.083434  6.799063

  Mechanical properties :

  Convention :                    Reuss         Voigt         Hill
  Bulk  Modulus (GPa)     =       1.11494       3.30634       2.21064
  Shear Modulus (GPa)     =       0.50141       6.46460       3.48301
  Velocity S-wave (km/s)  =       0.72924       2.61847       1.92200
  Velocity P-wave (km/s)  =       1.37535       3.55648       2.69631
  Compressibility (1/GPa) =    0.89690664
  Stress axis :                     x             y             z
  Youngs Moduli (GPa)     =      20.00063       1.96699      11.10848
  Poissons Ratio (x)      =                    -0.04576      -0.32508
  Poissons Ratio (y)      =      -0.46533                    -0.79667
  Poissons Ratio (z)      =      -0.58531      -0.14107

  Piezoelectric Strain Matrix: (Units=C/m**2)

  Indices      1         2         3         4         5         6
       x    -0.00000  -0.00000  -0.00000  -0.00000  -0.00000  -0.00000
       y    -0.00000  -0.00000  -0.00000  -0.00000  -0.00000  -0.00000
       z    -0.00000  -0.00000  -0.00000  -0.00000  -0.00000  -0.00000

  Piezoelectric Stress Matrix: (Units=10**-11 C/N)

  Indices      1         2         3         4         5         6
       x     0.00000   0.00000   0.00000   0.00000   0.00000   0.00000
       y     0.00000   0.00000   0.00000   0.00000   0.00000   0.00000
       z     0.00000   0.00000   0.00000   0.00000   0.00000   0.00000

  Static dielectric constant tensor :

              x         y         z
       x     1.00000   0.00000   0.00000
       y     0.00000   1.00000   0.00000
       z     0.00000   0.00000   1.00000

  Static refractive indices :

    1 =    1.00000      2 =    1.00000      3 =    1.00000

  Phonon Calculation :

  Number of k points for this configuration =        1

  K point      1 =   0.000000  0.000000  0.000000  Weight =    1.000

  Frequencies (cm-1) [NB: Negative implies an imaginary mode]:

 -200.84 -183.32 -137.93 -117.55   -0.00    0.00    0.00  374.75  537.25

  Phonon properties (per mole of unit cells): Temperature =      0.000 K
  Zero point energy             =        0.056537 eV

  Phonon density of states :

 Frequency (cm-1) Density of States
    0.00000 |************************************************************  0.500
    8.39449 |                                                              0.000
   16.78899 |                                                              0.000
   25.18348 |                                                              0.000
   33.57797 |                                                              0.000
   41.97246 |                                                              0.000
   50.36696 |                                                              0.000
   58.76145 |                                                              0.000
   67.15594 |                                                              0.000
   75.55043 |                                                              0.000
   83.94493 |                                                              0.000
   92.33942 |                                                              0.000
  100.73391 |                                                              0.000
  109.12840 |                                                              0.000
  117.52290 |                                                              0.000
  125.91739 |                                                              0.000
  134.31188 |                                                              0.000
  142.70637 |                                                              0.000
  151.10087 |                                                              0.000
  159.49536 |                                                              0.000
  167.88985 |                                                              0.000
  176.28435 |                                                              0.000
  184.67884 |                                                              0.000
  193.07333 |                                                              0.000
  201.46782 |                                                              0.000
  209.86232 |                                                              0.000
  218.25681 |                                                              0.000
  226.65130 |                                                              0.000
  235.04579 |                                                              0.000
  243.44029 |                                                              0.000
  251.83478 |                                                              0.000
  260.22927 |                                                              0.000
  268.62376 |                                                              0.000
  277.01826 |                                                              0.000
  285.41275 |                                                              0.000
  293.80724 |                                                              0.000
  302.20173 |                                                              0.000
  310.59623 |                                                              0.000
  318.99072 |                                                              0.000
  327.38521 |                                                              0.000
  335.77971 |                                                              0.000
  344.17420 |                                                              0.000
  352.56869 |                                                              0.000
  360.96318 |                                                              0.000
  369.35768 |******************************                                0.250
  377.75217 |                                                              0.000
  386.14666 |                                                              0.000
  394.54115 |                                                              0.000
  402.93565 |                                                              0.000
  411.33014 |                                                              0.000
  419.72463 |                                                              0.000
  428.11912 |                                                              0.000
  436.51362 |                                                              0.000
  444.90811 |                                                              0.000
  453.30260 |                                                              0.000
  461.69709 |                                                              0.000
  470.09159 |                                                              0.000
  478.48608 |                                                              0.000
  486.88057 |                                                              0.000
  495.27506 |                                                              0.000
  503.66956 |                                                              0.000
  512.06405 |                                                              0.000
  520.45854 |                                                              0.000
  528.85304 |******************************                                0.250

  Time to end of properties =       0.0056 seconds

  Timing analysis for GULP :

  Task / Subroutine                                          Time (Seconds)
  Calculation of real space energy and derivatives                0.0001
  Calculation of phonons                                          0.0003

  Job Finished at 16:53.20 25th October    2023