  Job Started  at 17:42.28 24th November   2023

  Number of CPUs =     1

  Total number of configurations input =      1

*  Input for Configuration =   1                                               *

  Formula = OMg

  Number of irreducible atoms/shells =       2

  Total number atoms/shells =       2

  Dimensionality = 3               :  Bulk

  Cartesian lattice vectors (Angstroms) :

        5.000000    0.000000    0.000000
        0.000000    5.000000    0.000000
        0.000000    0.000000    5.000000

  Cell parameters (Angstroms/Degrees):

  a =       5.0000    alpha =  90.0000
  b =       5.0000    beta  =  90.0000
  c =       5.0000    gamma =  90.0000

  Initial cell volume =         125.000000 Angs**3

  Temperature of configuration =   0.00     K

  Pressure of configuration =         0.000 GPa

  Fractional coordinates of asymmetric unit :

   No.  Atomic       x           y          z         Charge      Occupancy
        Label      (Frac)      (Frac)     (Frac)        (e)         (Frac)
      1 O     c    0.000000    0.000000    0.000000     0.00000    1.000000
      2 Mg    c    0.500000    0.500000    0.500000     0.00000    1.000000

  Brillouin zone sampling points :

  Point number          x          y          z            Weight
        1           0.000000   0.000000   0.000000     1.00000000

*  General input information                                                   *

  Species output for all configurations :

  Species    Type    Atomic    Atomic    Charge       Radii (Angs)     Library
                     Number     Mass       (e)     Cova   Ionic  VDW   Symbol
    O        Core        8      16.00   0.000000   0.730  0.000  1.360
    Mg       Core       12      24.31   0.000000   1.100  0.000  1.640

  Lattice summation method               =    Ewald          (3-D)
                                         =    Parry          (2-D)
                                         =    Saunders et al (1-D)
  Accuracy factor for lattice sums       =   12.000

  Analytic derivatives to be used

  Time limit = Infinity

  Maximum range for interatomic potentials =    100000.000000 Angstroms

  General interatomic potentials :

Atom  Types   Potential      Parameter       Value         Units   Cutoffs(Ang)
  1     2                                                            Min /  Max
O    c Mg   c Buckingham    Buckingham A     946.62700    eV        0.000 10.000
                            Buckingham rho  0.31813000    Ang
                            Buckingham C     0.0000000    eV*Ang^6

*  Output for configuration   1                                                *

  Strain-strain second derivative matrix : (eV)

[...]

  Internal-internal second derivative matrix : (eV/Angstrom**2)

[...]

  Components of energy :

  Interatomic potentials     =           0.00928989 eV
  Monopole - monopole (real) =           0.00000000 eV
  Monopole - monopole (recip)=           0.00000000 eV
  Monopole - monopole (total)=           0.00000000 eV
  Total lattice energy       =           0.00928989 eV
  Total lattice energy       =               0.8963 kJ/(mole unit cells)

  Elastic Constant Matrix: (Units=GPa)

  Indices      1         2         3         4         5         6
       1      0.1551    0.2631    0.2631   -0.0000   -0.0000   -0.0000
       2      0.2631    0.1551    0.2631   -0.0000   -0.0000   -0.0000
       3      0.2631    0.2631    0.1551    0.0000    0.0000    0.0000
       4     -0.0000   -0.0000    0.0000    0.2091    0.0000   -0.0000
       5     -0.0000   -0.0000    0.0000    0.0000    0.2091   -0.0000
       6     -0.0000   -0.0000    0.0000   -0.0000   -0.0000    0.2091

  Elastic Compliance Matrix: (Units=1/GPa)

  Indices      1         2         3         4         5         6
       1   -5.681745  3.574727  3.574727 -0.000000 -0.000000 -0.000000
       2    3.574727 -5.681745  3.574727 -0.000000 -0.000000 -0.000000
       3    3.574727  3.574727 -5.681745  0.000000  0.000000  0.000000
       4   -0.000000 -0.000000  0.000000  4.782466 -0.000000  0.000000
       5   -0.000000 -0.000000  0.000000 -0.000000  4.782466  0.000000
       6   -0.000000 -0.000000  0.000000  0.000000  0.000000  4.782466

  Mechanical properties :

  Convention :                    Reuss         Voigt         Hill
  Bulk  Modulus (GPa)     =       0.22711       0.22711       0.22711
  Shear Modulus (GPa)     =      -0.22047       0.10385      -0.05831
  Velocity S-wave (km/s)  =      -0.64165       0.44038      -0.32999
  Velocity P-wave (km/s)  =       0.35333       0.82625       0.52813
  Compressibility (1/GPa) =    4.40312834
  Stress axis :                     x             y             z
  Youngs Moduli (GPa)     =      -0.17600      -0.17600      -0.17600
  Poissons Ratio (x)      =                     0.62916       0.62916
  Poissons Ratio (y)      =       0.62916                     0.62916
  Poissons Ratio (z)      =       0.62916       0.62916

  Piezoelectric Strain Matrix: (Units=C/m**2)

  Indices      1         2         3         4         5         6
       x    -0.00000  -0.00000  -0.00000  -0.00000  -0.00000  -0.00000
       y    -0.00000  -0.00000  -0.00000  -0.00000  -0.00000  -0.00000
       z    -0.00000  -0.00000  -0.00000  -0.00000  -0.00000  -0.00000

  Piezoelectric Stress Matrix: (Units=10**-11 C/N)

  Indices      1         2         3         4         5         6
       x     0.00000   0.00000   0.00000   0.00000   0.00000   0.00000
       y     0.00000   0.00000   0.00000   0.00000   0.00000   0.00000
       z     0.00000   0.00000   0.00000   0.00000   0.00000   0.00000

  Static dielectric constant tensor :

              x         y         z
       x     1.00000   0.00000   0.00000
       y     0.00000   1.00000   0.00000
       z     0.00000   0.00000   1.00000

  Static refractive indices :

    1 =    1.00000      2 =    1.00000      3 =    1.00000

  Phonon Calculation :

  Number of k points for this configuration =        1

  K point      1 =   0.000000  0.000000  0.000000  Weight =    1.000

  Frequencies (cm-1) [NB: Negative implies an imaginary mode]:

   -0.00   -0.00    0.00   27.12   27.12   27.12

  Phonon properties (per mole of unit cells): Temperature =      0.000 K
  Zero point energy             =        0.005044 eV

  Phonon density of states :

 Frequency (cm-1) Density of States
    0.00000 |********************                                          0.250
    0.42377 |                                                              0.000
    0.84755 |                                                              0.000
    1.27132 |                                                              0.000
    1.69510 |                                                              0.000
    2.11887 |                                                              0.000
    2.54264 |                                                              0.000
    2.96642 |                                                              0.000
    3.39019 |                                                              0.000
    3.81396 |                                                              0.000
    4.23774 |                                                              0.000
    4.66151 |                                                              0.000
    5.08529 |                                                              0.000
    5.50906 |                                                              0.000
    5.93283 |                                                              0.000
    6.35661 |                                                              0.000
    6.78038 |                                                              0.000
    7.20415 |                                                              0.000
    7.62793 |                                                              0.000
    8.05170 |                                                              0.000
    8.47548 |                                                              0.000
    8.89925 |                                                              0.000
    9.32302 |                                                              0.000
    9.74680 |                                                              0.000
   10.17057 |                                                              0.000
   10.59435 |                                                              0.000
   11.01812 |                                                              0.000
   11.44189 |                                                              0.000
   11.86567 |                                                              0.000
   12.28944 |                                                              0.000
   12.71321 |                                                              0.000
   13.13699 |                                                              0.000
   13.56076 |                                                              0.000
   13.98454 |                                                              0.000
   14.40831 |                                                              0.000
   14.83208 |                                                              0.000
   15.25586 |                                                              0.000
   15.67963 |                                                              0.000
   16.10341 |                                                              0.000
   16.52718 |                                                              0.000
   16.95095 |                                                              0.000
   17.37473 |                                                              0.000
   17.79850 |                                                              0.000
   18.22227 |                                                              0.000
   18.64605 |                                                              0.000
   19.06982 |                                                              0.000
   19.49360 |                                                              0.000
   19.91737 |                                                              0.000
   20.34114 |                                                              0.000
   20.76492 |                                                              0.000
   21.18869 |                                                              0.000
   21.61246 |                                                              0.000
   22.03624 |                                                              0.000
   22.46001 |                                                              0.000
   22.88379 |                                                              0.000
   23.30756 |                                                              0.000
   23.73133 |                                                              0.000
   24.15511 |                                                              0.000
   24.57888 |                                                              0.000
   25.00266 |                                                              0.000
   25.42643 |                                                              0.000
   25.85020 |                                                              0.000
   26.27398 |                                                              0.000
   26.69775 |************************************************************  0.750

  Time to end of properties =       0.0046 seconds

  Electrostatic potential at atomic positions :

 Site  Atomic      Potential                Derivatives (V/Angs)
 No.   Label          (V)                 x           y           z
     1 O     c      0.000000           0.000000    0.000000    0.000000
     2 Mg    c      0.000000           0.000000    0.000000    0.000000

  Total time to end of atomic site potentials =       0.0047 s

  Timing analysis for GULP :

  Task / Subroutine                                          Time (Seconds)
  Calculation of phonons                                          0.0004

  FDF file written as hi.fdf

  Job Finished at 17:42.28 24th November   2023