  Ewald parameters :  Eta               =     0.150914 Angs-2
                      Real space radius =    13.531110 Angs
                      Recip space radius=     4.084073 Angs-1

  Reciprocal lattice vectors :

   1.25664     0.00000     0.00000
   0.00000     1.25664     0.00000
   0.00000     0.00000     1.25664

[...]

   1.25664     0.00000     0.00000
   0.00000     1.25664     0.00000
   0.00000     0.00000     1.25664
*  single       - perform a single point run                                   *
*  conp         - constant pressure calculation                                *
*  numerical    - calculate properties using numerical second derivatives      *
*  phonon       - calculate phonons for final geometry                         *

  Job Started  at 18:23.45 10th November   2023

  Number of CPUs =     1

  Total number of configurations input =      1

[...]

*  Input for Configuration =   1                                               *

  Formula = O2Mg

  Number of irreducible atoms/shells =       3

  Total number atoms/shells =       3

  Dimensionality = 3               :  Bulk

  Cartesian lattice vectors (Angstroms) :

[...]

  Cell parameters (Angstroms/Degrees):

  a =       5.0000    alpha =  90.0000
  b =       5.0000    beta  =  90.0000
  c =       5.0000    gamma =  90.0000

  Initial cell volume =         125.000000 Angs**3

  Temperature of configuration =   0.00     K

  Pressure of configuration =         0.000 GPa

  Fractional coordinates of asymmetric unit :

   No.  Atomic       x           y          z         Charge      Occupancy
        Label      (Frac)      (Frac)     (Frac)        (e)         (Frac)
      1 O     c    0.370000    0.280000    0.790000    -2.00000    1.000000
      2 O     c    0.500000    0.420000    0.100000    -2.00000    1.000000
      3 Mg    c    0.800000    0.880000    0.450000     4.00000    1.000000

  Brillouin zone sampling points :

  Point number          x          y          z            Weight
        1           0.000000   0.000000   0.000000     1.00000000

*  General input information                                                   *

  Species output for all configurations :

  Species    Type    Atomic    Atomic    Charge       Radii (Angs)     Library
                     Number     Mass       (e)     Cova   Ionic  VDW   Symbol
    O        Core        8      16.00  -2.000000   0.730  0.000  1.360
    Mg       Core       12      24.31   4.000000   1.100  0.000  1.640

  Lattice summation method               =    Ewald          (3-D)
                                         =    Parry          (2-D)
                                         =    Saunders et al (1-D)
  Accuracy factor for lattice sums       =   12.000

  Analytic derivatives to be used

  Time limit = Infinity

*  Output for configuration   1                                                *

[...]

  Strain-strain second derivative matrix : (eV)

[...]

  Internal-internal second derivative matrix : (eV/Angstrom**2)

[...]

  Components of energy :

  Interatomic potentials     =           0.00000000 eV
  Monopole - monopole (real) =           1.60586963 eV
  Monopole - monopole (recip)=         -75.74544955 eV
  Monopole - monopole (total)=         -74.13957992 eV
  Total lattice energy       =         -74.13957992 eV
  Total lattice energy       =           -7153.3361 kJ/(mole unit cells)

  Born effective charge tensors :

  Atom             x           y             z
    1 O     x      -2.0000      0.0000      0.0000
            y       0.0000     -2.0000      0.0000
            z       0.0000      0.0000     -2.0000
    2 O     x      -2.0000      0.0000      0.0000
            y       0.0000     -2.0000      0.0000
            z       0.0000      0.0000     -2.0000
    3 Mg    x       4.0000      0.0000      0.0000
            y       0.0000      4.0000      0.0000
            z       0.0000      0.0000      4.0000

  Elastic Constant Matrix: (Units=GPa)

  Indices      1         2         3         4         5         6
       1    102.2773  -88.6950  -81.8652  -24.8702   17.4019    5.9449
       2    -88.6950  116.3922  -39.4680    9.3897  -23.0272   -6.5210
       3    -81.8652  -39.4680  178.1965    7.6910  -18.0126  -17.6819
       4    -24.8702    9.3897    7.6910  -43.3328   -3.7250   -6.4042
       5     17.4019  -23.0272  -18.0126   -3.7250  -17.8632   -1.0390
       6      5.9449   -6.5210  -17.6819   -6.4042   -1.0390  -29.2285

  Elastic Compliance Matrix: (Units=1/GPa)

  Indices      1         2         3         4         5         6
       1   -0.039742 -0.033147 -0.022461  0.008025  0.024392  0.010274
       2   -0.033147 -0.021084 -0.018493  0.009214  0.011223  0.006732
       3   -0.022461 -0.018493 -0.007952  0.006346  0.008498  0.002676
       4    0.008025  0.009214  0.006346 -0.024275 -0.005470  0.001251
       5    0.024392  0.011223  0.008498 -0.005470 -0.054142  0.000439
       6    0.010274  0.006732  0.002676  0.001251  0.000439 -0.035534

  Mechanical properties :

  Convention :                    Reuss         Voigt         Hill
  Bulk  Modulus (GPa)     =      -4.60873      -2.57672      -3.59272
  Shear Modulus (GPa)     =     -46.79316      22.37472     -12.20922
  Velocity S-wave (km/s)  =      -7.90907       5.46906      -4.03997
  Velocity P-wave (km/s)  =       9.46390       6.03625       5.15408
  Compressibility (1/GPa) =   -0.21697965
  Stress axis :                     x             y             z
  Youngs Moduli (GPa)     =     -25.16246     -47.42896    -125.75130
  Poissons Ratio (x)      =                    -1.57213      -2.82446
  Poissons Ratio (y)      =      -0.83406                    -2.32553
  Poissons Ratio (z)      =      -0.56517      -0.87711

  Piezoelectric Strain Matrix: (Units=C/m**2)

  Indices      1         2         3         4         5         6
       x    15.25263 -18.12284 -15.92289  -4.49588   6.22484   4.40998
       y     2.56613  -3.21155   2.52705  -3.04379  -0.00830  -6.54456
       z    -4.91476   1.62031   4.69815   2.72250  -9.42281  -1.84637

  Piezoelectric Stress Matrix: (Units=10**-11 C/N)

  Indices      1         2         3         4         5         6
       x    51.32539  22.91168  15.53536  -6.50219 -27.71783 -16.74858
       y   -14.41577 -13.62737  -5.52392   7.27885   6.22475  24.02489
       z   -19.08695  -5.12370  -2.46768  -1.15545  43.26987   3.78588

  Static dielectric constant tensor :

              x         y         z
       x    -6.79499   0.00000   0.00000
       y     0.00000  -3.68501   0.00000
       z     0.00000   0.00000  -1.74404

  Static refractive indices :

    1 =   -2.60672      2 =   -1.91964      3 =   -1.32062

  Phonon Calculation :

  Number of k points for this configuration =        1

  K point      1 =   0.000000  0.000000  0.000000  Weight =    1.000

  Ewald parameters :  Eta               =     0.150914 Angs-2
                      Real space radius =    13.531110 Angs
                      Recip space radius=     4.084073 Angs-1

  Reciprocal lattice vectors :

[...]

  Frequencies (cm-1) [NB: Negative implies an imaginary mode]:

 -560.87 -521.00 -401.34 -309.43 -239.18   -0.00   -0.00    0.00  805.81

  Phonon properties (per mole of unit cells): Temperature =      0.000 K
  Zero point energy             =        0.049954 eV

  Phonon density of states :

 Frequency (cm-1) Density of States
    0.00000 |************************************************************  0.500
   12.59085 |                                                              0.000
   25.18170 |                                                              0.000
   37.77255 |                                                              0.000
   50.36340 |                                                              0.000
   62.95425 |                                                              0.000
   75.54510 |                                                              0.000
   88.13595 |                                                              0.000
  100.72680 |                                                              0.000
  113.31765 |                                                              0.000
  125.90850 |                                                              0.000
  138.49935 |                                                              0.000
  151.09021 |                                                              0.000
  163.68106 |                                                              0.000
  176.27191 |                                                              0.000
  188.86276 |                                                              0.000
  201.45361 |                                                              0.000
  214.04446 |                                                              0.000
  226.63531 |                                                              0.000
  239.22616 |                                                              0.000
  251.81701 |                                                              0.000
  264.40786 |                                                              0.000
  276.99871 |                                                              0.000
  289.58956 |                                                              0.000
  302.18041 |                                                              0.000
  314.77126 |                                                              0.000
  327.36211 |                                                              0.000
  339.95296 |                                                              0.000
  352.54381 |                                                              0.000
  365.13466 |                                                              0.000
  377.72551 |                                                              0.000
  390.31636 |                                                              0.000
  402.90721 |                                                              0.000
  415.49806 |                                                              0.000
  428.08891 |                                                              0.000
  440.67976 |                                                              0.000
  453.27062 |                                                              0.000
  465.86147 |                                                              0.000
  478.45232 |                                                              0.000
  491.04317 |                                                              0.000
  503.63402 |                                                              0.000
  516.22487 |                                                              0.000
  528.81572 |                                                              0.000
  541.40657 |                                                              0.000
  553.99742 |                                                              0.000
  566.58827 |                                                              0.000
  579.17912 |                                                              0.000
  591.76997 |                                                              0.000
  604.36082 |                                                              0.000
  616.95167 |                                                              0.000
  629.54252 |                                                              0.000
  642.13337 |                                                              0.000
  654.72422 |                                                              0.000
  667.31507 |                                                              0.000
  679.90592 |                                                              0.000
  692.49677 |                                                              0.000
  705.08762 |                                                              0.000
  717.67847 |                                                              0.000
  730.26932 |                                                              0.000
  742.86017 |                                                              0.000
  755.45103 |                                                              0.000
  768.04188 |                                                              0.000
  780.63273 |                                                              0.000
  793.22358 |************************************************************  0.500

  Time to end of properties =       0.0061 seconds

  Timing analysis for GULP :

  Task / Subroutine                                          Time (Seconds)
  Calculation of reciprocal space energy and derivatives          0.0004
  Calculation of real space energy and derivatives                0.0016
  Calculation of phonons                                          0.0004

  Job Finished at 18:23.45 10th November   2023