  Job Started  at 16:10.40  2nd August     2023

  Number of CPUs =     1

  Total number of configurations input =      1

*  Input for Configuration =   1                                               *

  Formula = BaSnO3

  Number of irreducible atoms/shells =      10

  Total number atoms/shells =      10

  Dimensionality = 3               :  Bulk

  Cartesian lattice vectors (Angstroms) :

        5.000000    0.000000    0.000000
        0.000000    5.000000    0.000000
        0.000000    0.000000    5.000000

  Cell parameters (Angstroms/Degrees):

  a =       5.0000    alpha =  90.0000
  b =       5.0000    beta  =  90.0000
  c =       5.0000    gamma =  90.0000

  Initial cell volume =         125.000000 Angs**3

  Temperature of configuration =   0.00     K

  Pressure of configuration =         0.000 GPa

  Fractional coordinates of asymmetric unit :

   No.  Atomic       x           y          z         Charge      Occupancy
        Label      (Frac)      (Frac)     (Frac)        (e)         (Frac)
      1 Ba    c    0.500000    0.500000    0.500000    -7.20300    1.000000
      2 Sn    c    0.000000    0.000000    0.000000     2.42000    1.000000
      3 O     c    0.000000    0.500000    0.000000     0.38900    1.000000
      4 O     c    0.000000    0.000000    0.500000     0.38900    1.000000
      5 O     c    0.500000    0.000000    0.000000     0.38900    1.000000
      6 Ba    s    0.500000    0.500000    0.500000     9.20300    1.000000
      7 Sn    s    0.000000    0.000000    0.000000     1.58000    1.000000
      8 O     s    0.000000    0.500000    0.000000    -2.38900    1.000000
      9 O     s    0.000000    0.000000    0.500000    -2.38900    1.000000
     10 O     s    0.500000    0.000000    0.000000    -2.38900    1.000000

*  General input information                                                   *

  Species output for all configurations :

  Species    Type    Atomic    Atomic    Charge       Radii (Angs)     Library
                     Number     Mass       (e)     Cova   Ionic  VDW   Symbol
    Ba       Core       56     137.33  -7.203000   1.340  0.000  2.000
    Ba       Shell      56       0.00   9.203000   1.340  0.000  2.000
    Sn       Core       50     118.71   2.420000   1.460  0.000  2.180
    Sn       Shell      50       0.00   1.580000   1.460  0.000  2.180
    O        Core        8      16.00   0.389000   0.730  0.000  1.360
    O        Shell       8       0.00  -2.389000   0.730  0.000  1.360

  Lattice summation method               =    Ewald          (3-D)
                                         =    Parry          (2-D)
                                         =    Saunders et al (1-D)
  Accuracy factor for lattice sums       =   18.000

  Analytic derivatives to be used

  Time limit = Infinity

  Maximum range for interatomic potentials =    100000.000000 Angstroms

  General interatomic potentials :

Atom  Types   Potential      Parameter       Value         Units   Cutoffs(Ang)
  1     2                                                            Min /  Max
O    s O    s Buckingham    Buckingham A     9547.9600    eV        0.000 12.000
                            Buckingham rho  0.21920000    Ang
                            Buckingham C     32.000000    eV*Ang^6
O    s Ba   s Buckingham    Buckingham A     873.82901    eV        0.000 12.000
                            Buckingham rho  0.38630000    Ang
                            Buckingham C     0.0000000    eV*Ang^6
O    s Sn   s Buckingham    Buckingham A     1056.8000    eV        0.000 12.000
                            Buckingham rho  0.36830000    Ang
                            Buckingham C     0.0000000    eV*Ang^6
Ba   c Ba   s Spring (c-s)  Spring k 2       459.20000    eV*Ang^-2 0.000  0.800
                            Spring k 4       0.0000000    eV*Ang^-4
Sn   c Sn   s Spring (c-s)  Spring k 2       2037.8000    eV*Ang^-2 0.000  0.800
                            Spring k 4       0.0000000    eV*Ang^-4
O    c O    s Spring (c-s)  Spring k 2       23.090000    eV*Ang^-2 0.000  0.800
                            Spring k 4       0.0000000    eV*Ang^-4

*  Output for configuration   1                                                *

  Components of energy :

  Interatomic potentials     =           8.03723436 eV
  Monopole - monopole (real) =         -33.49588353 eV
  Monopole - monopole (recip)=        -109.09015584 eV
  Monopole - monopole (total)=        -142.58603937 eV
  Total lattice energy       =        -134.54880501 eV
  Total lattice energy       =          -12981.9029 kJ/(mole unit cells)

  XYZ File written as 1.xyz

  Timing analysis for GULP :

  Task / Subroutine                                          Time (Seconds)
  Calculation of reciprocal space energy and derivatives          0.0001
  Calculation of real space energy and derivatives                0.0005

  Dump file written as 1.res

  Job Finished at 16:10.40  2nd August     2023