  Ewald parameters :  Eta               =     0.220395 Angs-2
                      Real space radius =    11.196897 Angs
                      Recip space radius=     4.935478 Angs-1

  Reciprocal lattice vectors :

   1.57080     0.00000     0.00000
   0.00000     1.57080     0.00000
   0.00000     0.00000     1.57080

[...]

   1.57080     0.00000     0.00000
   0.00000     1.57080     0.00000
   0.00000     0.00000     1.57080
*  single       - perform a single point run                                   *
* Example of defect impurity calc : Li substituted into MgO                    *

  Job Started  at 19:05.34 22nd August     2023

  Number of CPUs =     1

  Total number of configurations input =      1

[...]

*  Input for Configuration =   1                                               *

  Formula = OMg

  Number of irreducible atoms/shells =       2

  Total number atoms/shells =       2

  Dimensionality = 3               :  Bulk

  Cartesian lattice vectors (Angstroms) :

[...]

  Cell parameters (Angstroms/Degrees):

  a =       4.0000    alpha =  90.0000
  b =       4.0000    beta  =  90.0000
  c =       4.0000    gamma =  90.0000

  Initial cell volume =          64.000000 Angs**3

  Temperature of configuration =   0.00     K

  Pressure of configuration =         0.000 GPa

  Fractional coordinates of asymmetric unit :

   No.  Atomic       x           y          z         Charge      Occupancy
        Label      (Frac)      (Frac)     (Frac)        (e)         (Frac)
      1 O     c    0.500000    0.500000    0.500000    -2.00000    1.000000
      2 Mg    c    0.000000    0.000000    0.000000     2.00000    1.000000

*  General input information                                                   *

  Species output for all configurations :

  Species    Type    Atomic    Atomic    Charge       Radii (Angs)     Library
                     Number     Mass       (e)     Cova   Ionic  VDW   Symbol
    O        Core        8      16.00  -2.000000   0.730  0.000  1.360
    Mg       Core       12      24.31   2.000000   1.100  0.000  1.640

  Lattice summation method               =    Ewald          (3-D)
                                         =    Parry          (2-D)
                                         =    Saunders et al (1-D)
  Accuracy factor for lattice sums       =   12.000

  Analytic derivatives to be used

  Time limit = Infinity

  Maximum range for interatomic potentials =    100000.000000 Angstroms

  General interatomic potentials :

Atom  Types   Potential      Parameter       Value         Units   Cutoffs(Ang)
  1     2                                                            Min /  Max
O    c Mg   c Buckingham    Buckingham A     1280.0000    eV        0.000  8.000
                            Buckingham rho  0.30000000    Ang
                            Buckingham C     0.0000000    eV*Ang^6

*  Output for configuration   1                                                *

[...]

  Ewald parameters :  Eta               =     0.220395 Angs-2
                      Real space radius =    11.196897 Angs
                      Recip space radius=     4.935478 Angs-1

  Reciprocal lattice vectors :

   1.57080     0.00000     0.00000
   0.00000     1.57080     0.00000
   0.00000     0.00000     1.57080

  Components of energy :

  Interatomic potentials     =           0.09897668 eV
  Monopole - monopole (real) =          -2.15085848 eV
  Monopole - monopole (recip)=         -27.15785551 eV
  Monopole - monopole (total)=         -29.30871399 eV
  Total lattice energy       =         -29.20973731 eV
  Total lattice energy       =           -2818.2931 kJ/(mole unit cells)

  Timing analysis for GULP :

  Task / Subroutine                                          Time (Seconds)

  Job Finished at 19:05.34 22nd August     2023